21° run output:
{
    "Function": "euclidB300.tsp",
    "Problem dimension": [
        22,
        71,
        237,
        231,
        261,
        268,
        77,
        92,
        243,
        255,
        15,
        116,
        132,
        26,
        169,
        3,
        62,
        233,
        61,
        197,
        51,
        72,
        80,
        278,
        280,
        23,
        113,
        183,
        209,
        54,
        149,
        194,
        42,
        70,
        186,
        216,
        252,
        82,
        38,
        79,
        68,
        282,
        298,
        66,
        52,
        218,
        262,
        199,
        198,
        56,
        64,
        99,
        105,
        14,
        205,
        253,
        44,
        30,
        206,
        117,
        170,
        214,
        171,
        59,
        295,
        93,
        161,
        291,
        95,
        48,
        119,
        225,
        167,
        12,
        182,
        129,
        81,
        131,
        16,
        6,
        87,
        57,
        139,
        219,
        193,
        227,
        224,
        201,
        296,
        21,
        40,
        257,
        160,
        164,
        8,
        25,
        249,
        195,
        210,
        7,
        258,
        276,
        229,
        277,
        5,
        228,
        17,
        10,
        178,
        41,
        83,
        128,
        179,
        226,
        53,
        122,
        73,
        152,
        108,
        114,
        230,
        137,
        75,
        190,
        189,
        9,
        106,
        208,
        203,
        270,
        112,
        159,
        69,
        20,
        46,
        154,
        1,
        135,
        297,
        234,
        74,
        269,
        91,
        235,
        120,
        130,
        60,
        103,
        136,
        200,
        242,
        147,
        50,
        133,
        35,
        251,
        281,
        29,
        196,
        288,
        173,
        163,
        250,
        283,
        118,
        13,
        85,
        157,
        49,
        285,
        275,
        2,
        86,
        175,
        217,
        273,
        138,
        180,
        292,
        104,
        0,
        176,
        45,
        241,
        287,
        47,
        55,
        207,
        155,
        148,
        89,
        293,
        181,
        279,
        245,
        4,
        238,
        24,
        174,
        150,
        221,
        184,
        37,
        65,
        134,
        246,
        264,
        125,
        158,
        146,
        187,
        220,
        166,
        145,
        84,
        110,
        165,
        96,
        177,
        239,
        223,
        144,
        256,
        141,
        153,
        151,
        124,
        76,
        172,
        102,
        121,
        188,
        259,
        263,
        111,
        162,
        90,
        286,
        11,
        19,
        142,
        140,
        156,
        115,
        32,
        101,
        94,
        213,
        191,
        247,
        240,
        267,
        27,
        67,
        290,
        28,
        266,
        31,
        222,
        192,
        33,
        202,
        126,
        244,
        100,
        271,
        215,
        63,
        236,
        212,
        168,
        39,
        272,
        274,
        254,
        265,
        211,
        260,
        36,
        232,
        97,
        294,
        289,
        88,
        78,
        107,
        204,
        98,
        127,
        143,
        18,
        58,
        43,
        185,
        299,
        284,
        109,
        248,
        123,
        34
    ],
    "Global Optimum": 0,
    "Algorithm": "Genetic algorithm",
    "Parameters": {
        "population": 30,
        "offspring": 30,
        "mutation probability": 0.0033333333333333335,
        "crossover probability": 0.9
    },
    "Fitness": 361832,
    "Solution": [
        22,
        71,
        237,
        231,
        261,
        268,
        77,
        92,
        243,
        255,
        15,
        116,
        132,
        26,
        169,
        3,
        62,
        233,
        61,
        197,
        51,
        72,
        80,
        278,
        280,
        23,
        113,
        183,
        209,
        54,
        149,
        194,
        42,
        70,
        186,
        216,
        252,
        82,
        38,
        79,
        68,
        282,
        298,
        66,
        52,
        218,
        262,
        199,
        198,
        56,
        64,
        99,
        105,
        14,
        205,
        253,
        44,
        30,
        206,
        117,
        170,
        214,
        171,
        59,
        295,
        93,
        161,
        291,
        95,
        48,
        119,
        225,
        167,
        12,
        182,
        129,
        81,
        131,
        16,
        6,
        87,
        57,
        139,
        219,
        193,
        227,
        224,
        201,
        296,
        21,
        40,
        257,
        160,
        164,
        8,
        25,
        249,
        195,
        210,
        7,
        258,
        276,
        229,
        277,
        5,
        228,
        17,
        10,
        178,
        41,
        83,
        128,
        179,
        226,
        53,
        122,
        73,
        152,
        108,
        114,
        230,
        137,
        75,
        190,
        189,
        9,
        106,
        208,
        203,
        270,
        112,
        159,
        69,
        20,
        46,
        154,
        1,
        135,
        297,
        234,
        74,
        269,
        91,
        235,
        120,
        130,
        60,
        103,
        136,
        200,
        242,
        147,
        50,
        133,
        35,
        251,
        281,
        29,
        196,
        288,
        173,
        163,
        250,
        283,
        118,
        13,
        85,
        157,
        49,
        285,
        275,
        2,
        86,
        175,
        217,
        273,
        138,
        180,
        292,
        104,
        0,
        176,
        45,
        241,
        287,
        47,
        55,
        207,
        155,
        148,
        89,
        293,
        181,
        279,
        245,
        4,
        238,
        24,
        174,
        150,
        221,
        184,
        37,
        65,
        134,
        246,
        264,
        125,
        158,
        146,
        187,
        220,
        166,
        145,
        84,
        110,
        165,
        96,
        177,
        239,
        223,
        144,
        256,
        141,
        153,
        151,
        124,
        76,
        172,
        102,
        121,
        188,
        259,
        263,
        111,
        162,
        90,
        286,
        11,
        19,
        142,
        140,
        156,
        115,
        32,
        101,
        94,
        213,
        191,
        247,
        240,
        267,
        27,
        67,
        290,
        28,
        266,
        31,
        222,
        192,
        33,
        202,
        126,
        244,
        100,
        271,
        215,
        63,
        236,
        212,
        168,
        39,
        272,
        274,
        254,
        265,
        211,
        260,
        36,
        232,
        97,
        294,
        289,
        88,
        78,
        107,
        204,
        98,
        127,
        143,
        18,
        58,
        43,
        185,
        299,
        284,
        109,
        248,
        123,
        34
    ],
    "Nb of functions evaluations": 50010,
    "Computational time in seconds": 142.52372002601624,
    "Stopping criterion in evaluations": 50000
}